25° run output:
{
    "Function": "euclidB300.tsp",
    "Problem dimension": [
        251,
        262,
        64,
        14,
        34,
        6,
        199,
        193,
        191,
        146,
        159,
        98,
        35,
        11,
        66,
        173,
        218,
        16,
        279,
        273,
        169,
        290,
        299,
        217,
        100,
        192,
        72,
        99,
        74,
        51,
        88,
        151,
        254,
        5,
        265,
        264,
        145,
        223,
        258,
        161,
        253,
        46,
        267,
        134,
        266,
        60,
        242,
        0,
        58,
        106,
        128,
        238,
        261,
        274,
        272,
        108,
        67,
        8,
        227,
        32,
        175,
        103,
        213,
        295,
        231,
        80,
        120,
        186,
        280,
        260,
        288,
        24,
        71,
        225,
        111,
        9,
        200,
        293,
        102,
        118,
        277,
        207,
        172,
        84,
        287,
        270,
        282,
        164,
        45,
        269,
        189,
        237,
        259,
        68,
        160,
        233,
        220,
        95,
        292,
        203,
        236,
        79,
        177,
        239,
        255,
        248,
        19,
        38,
        22,
        61,
        244,
        41,
        165,
        139,
        29,
        243,
        2,
        18,
        124,
        178,
        70,
        112,
        137,
        249,
        182,
        281,
        204,
        180,
        232,
        210,
        252,
        140,
        154,
        221,
        23,
        278,
        136,
        268,
        48,
        20,
        44,
        141,
        105,
        77,
        284,
        224,
        49,
        142,
        158,
        130,
        229,
        116,
        69,
        78,
        230,
        115,
        147,
        87,
        285,
        135,
        163,
        92,
        155,
        286,
        256,
        209,
        4,
        144,
        152,
        211,
        184,
        196,
        52,
        121,
        3,
        228,
        13,
        226,
        143,
        76,
        153,
        298,
        73,
        138,
        54,
        132,
        171,
        89,
        75,
        183,
        179,
        33,
        291,
        94,
        263,
        53,
        59,
        131,
        47,
        101,
        234,
        222,
        113,
        241,
        126,
        150,
        39,
        168,
        63,
        85,
        114,
        117,
        10,
        17,
        245,
        86,
        289,
        97,
        276,
        26,
        283,
        167,
        176,
        62,
        104,
        1,
        119,
        246,
        36,
        42,
        157,
        187,
        162,
        12,
        81,
        15,
        174,
        30,
        212,
        219,
        93,
        127,
        83,
        201,
        275,
        194,
        125,
        205,
        129,
        208,
        109,
        294,
        55,
        31,
        206,
        21,
        28,
        185,
        50,
        195,
        198,
        107,
        82,
        250,
        170,
        43,
        40,
        57,
        202,
        156,
        133,
        149,
        96,
        257,
        215,
        110,
        56,
        188,
        214,
        297,
        37,
        90,
        240,
        7,
        190,
        247,
        216,
        181,
        27,
        197,
        122,
        296,
        25,
        65,
        91,
        123,
        235,
        271,
        148,
        166
    ],
    "Global Optimum": 0,
    "Algorithm": "Genetic algorithm",
    "Parameters": {
        "population": 30,
        "offspring": 30,
        "mutation probability": 0.0033333333333333335,
        "crossover probability": 0.9
    },
    "Fitness": 301730,
    "Solution": [
        251,
        262,
        64,
        14,
        34,
        6,
        199,
        193,
        191,
        146,
        159,
        98,
        35,
        11,
        66,
        173,
        218,
        16,
        279,
        273,
        169,
        290,
        299,
        217,
        100,
        192,
        72,
        99,
        74,
        51,
        88,
        151,
        254,
        5,
        265,
        264,
        145,
        223,
        258,
        161,
        253,
        46,
        267,
        134,
        266,
        60,
        242,
        0,
        58,
        106,
        128,
        238,
        261,
        274,
        272,
        108,
        67,
        8,
        227,
        32,
        175,
        103,
        213,
        295,
        231,
        80,
        120,
        186,
        280,
        260,
        288,
        24,
        71,
        225,
        111,
        9,
        200,
        293,
        102,
        118,
        277,
        207,
        172,
        84,
        287,
        270,
        282,
        164,
        45,
        269,
        189,
        237,
        259,
        68,
        160,
        233,
        220,
        95,
        292,
        203,
        236,
        79,
        177,
        239,
        255,
        248,
        19,
        38,
        22,
        61,
        244,
        41,
        165,
        139,
        29,
        243,
        2,
        18,
        124,
        178,
        70,
        112,
        137,
        249,
        182,
        281,
        204,
        180,
        232,
        210,
        252,
        140,
        154,
        221,
        23,
        278,
        136,
        268,
        48,
        20,
        44,
        141,
        105,
        77,
        284,
        224,
        49,
        142,
        158,
        130,
        229,
        116,
        69,
        78,
        230,
        115,
        147,
        87,
        285,
        135,
        163,
        92,
        155,
        286,
        256,
        209,
        4,
        144,
        152,
        211,
        184,
        196,
        52,
        121,
        3,
        228,
        13,
        226,
        143,
        76,
        153,
        298,
        73,
        138,
        54,
        132,
        171,
        89,
        75,
        183,
        179,
        33,
        291,
        94,
        263,
        53,
        59,
        131,
        47,
        101,
        234,
        222,
        113,
        241,
        126,
        150,
        39,
        168,
        63,
        85,
        114,
        117,
        10,
        17,
        245,
        86,
        289,
        97,
        276,
        26,
        283,
        167,
        176,
        62,
        104,
        1,
        119,
        246,
        36,
        42,
        157,
        187,
        162,
        12,
        81,
        15,
        174,
        30,
        212,
        219,
        93,
        127,
        83,
        201,
        275,
        194,
        125,
        205,
        129,
        208,
        109,
        294,
        55,
        31,
        206,
        21,
        28,
        185,
        50,
        195,
        198,
        107,
        82,
        250,
        170,
        43,
        40,
        57,
        202,
        156,
        133,
        149,
        96,
        257,
        215,
        110,
        56,
        188,
        214,
        297,
        37,
        90,
        240,
        7,
        190,
        247,
        216,
        181,
        27,
        197,
        122,
        296,
        25,
        65,
        91,
        123,
        235,
        271,
        148,
        166
    ],
    "Nb of functions evaluations": 200010,
    "Computational time in seconds": 450.3162610530853,
    "Stopping criterion in evaluations": 200000
}